unknown
(model
; cardinality of BoundSet is 1
(declare-sort BoundSet 0)
; rep: @uc_BoundSet_0
; cardinality of UnboundSet is 1
(declare-sort UnboundSet 0)
(declare-fun groundTerm_2 () UnboundSet)
(define-fun StudiesSlide ((BOUND_VARIABLE_397 BoundSet)) Bool true)
(define-fun IsRelatedTo ((BOUND_VARIABLE_409 BoundSet) (BOUND_VARIABLE_410 BoundSet)) Bool false)
)
unsat
(error "Cannot get model unless immediately preceded by SAT/NOT_ENTAILED or UNKNOWN response.")
